
Gurobi 10.0.1 (mac64[arm]) logging started Fri Sep 22 17:21:49 2023

Set parameter LogFile to value "results/scenario_returns/returns_normal/M_j_n_0/mip_log.txt"
Gurobi Optimizer version 10.0.1 build v10.0.1rc0 (mac64[arm])

CPU model: Apple M1
Thread count: 8 physical cores, 8 logical processors, using up to 8 threads

Optimize a model with 5172 rows, 18879 columns and 73986 nonzeros
Model fingerprint: 0x00a74549
Model has 26934 general constraints
Variable types: 3 continuous, 18876 integer (1224 binary)
Coefficient statistics:
  Matrix range     [6e-02, 3e+05]
  Objective range  [9e-02, 2e+05]
  Bounds range     [1e+00, 2e+07]
  RHS range        [2e+03, 2e+04]
  GenCon rhs range [1e+00, 1e+00]
  GenCon coe range [1e+00, 1e+00]

MIP start from previous solve produced solution with objective 6.00303e+07 (1.30s)
MIP start from previous solve produced solution with objective 5.81854e+07 (1.35s)
MIP start from previous solve produced solution with objective 5.81602e+07 (1.96s)
MIP start from previous solve produced solution with objective 5.80059e+07 (2.16s)
MIP start from previous solve produced solution with objective 5.78168e+07 (3.32s)
Processing MIP start from previous solve: 351 nodes explored in subMIP, total elapsed time 5s
MIP start from previous solve produced solution with objective 5.77956e+07 (5.89s)
Loaded MIP start from previous solve with objective 5.77956e+07
Processed MIP start in 5.92 seconds (9.03 work units)

Presolve removed 3572 rows and 13142 columns
Presolve time: 0.68s
Presolved: 1600 rows, 5737 columns, 22975 nonzeros
Presolved model has 4 SOS constraint(s)
Found heuristic solution: objective 6.689825e+07
Variable types: 0 continuous, 5737 integer (34 binary)

Root simplex log...

Iteration    Objective       Primal Inf.    Dual Inf.      Time
       0    2.0827362e+06   2.365520e+05   0.000000e+00      7s
    6744    5.5819609e+07   0.000000e+00   0.000000e+00      7s

Root relaxation: objective 5.581961e+07, 6744 iterations, 0.09 seconds (0.13 work units)

    Nodes    |    Current Node    |     Objective Bounds      |     Work
 Expl Unexpl |  Obj  Depth IntInf | Incumbent    BestBd   Gap | It/Node Time

     0     0 5.5820e+07    0  556 5.7796e+07 5.5820e+07  3.42%     -    6s
     0     0 5.5897e+07    0  675 5.7796e+07 5.5897e+07  3.28%     -    6s
     0     0 5.5936e+07    0  694 5.7796e+07 5.5936e+07  3.22%     -    6s
     0     0 5.5936e+07    0  695 5.7796e+07 5.5936e+07  3.22%     -    6s
     0     0 5.6245e+07    0  937 5.7796e+07 5.6245e+07  2.68%     -    7s
     0     0 5.6253e+07    0 1169 5.7796e+07 5.6253e+07  2.67%     -    7s
     0     0 5.6254e+07    0  998 5.7796e+07 5.6254e+07  2.67%     -    7s
     0     0 5.6254e+07    0 1019 5.7796e+07 5.6254e+07  2.67%     -    7s
     0     0 5.6261e+07    0  942 5.7796e+07 5.6261e+07  2.66%     -    7s
     0     0 5.6262e+07    0 1034 5.7796e+07 5.6262e+07  2.65%     -    7s
     0     0 5.6262e+07    0  972 5.7796e+07 5.6262e+07  2.65%     -    7s
     0     0 5.6262e+07    0 1043 5.7796e+07 5.6262e+07  2.65%     -    7s
     0     0 5.6310e+07    0  787 5.7796e+07 5.6310e+07  2.57%     -    7s
     0     0 5.6311e+07    0  926 5.7796e+07 5.6311e+07  2.57%     -    7s
     0     0 5.6311e+07    0  779 5.7796e+07 5.6311e+07  2.57%     -    7s
     0     0 5.6317e+07    0  965 5.7796e+07 5.6317e+07  2.56%     -    7s
     0     0 5.6318e+07    0  964 5.7796e+07 5.6318e+07  2.56%     -    7s
     0     0 5.6318e+07    0  979 5.7796e+07 5.6318e+07  2.56%     -    7s
     0     0 5.6320e+07    0  891 5.7796e+07 5.6320e+07  2.55%     -    7s
     0     0 5.6320e+07    0 1067 5.7796e+07 5.6320e+07  2.55%     -    7s
     0     0 5.6325e+07    0 1064 5.7796e+07 5.6325e+07  2.54%     -    7s
     0     0 5.6326e+07    0 1037 5.7796e+07 5.6326e+07  2.54%     -    7s
     0     0 5.6326e+07    0 1047 5.7796e+07 5.6326e+07  2.54%     -    7s
     0     0 5.6326e+07    0 1050 5.7796e+07 5.6326e+07  2.54%     -    7s
     0     0 5.6326e+07    0 1054 5.7796e+07 5.6326e+07  2.54%     -    7s
     0     0 5.6326e+07    0 1034 5.7796e+07 5.6326e+07  2.54%     -    8s
     0     2 5.6326e+07    0 1015 5.7796e+07 5.6326e+07  2.54%     -    8s
H   33    38                    5.761798e+07 5.6841e+07  1.35%   922    9s
*   73    68              11    5.738317e+07 5.6841e+07  0.95%   647    9s
H   74    68                    5.723351e+07 5.6841e+07  0.69%   638    9s
   138    76 5.7165e+07    7  401 5.7234e+07 5.6845e+07  0.68%   497   10s

Cutting planes:
  Cover: 1
  Implied bound: 755
  MIR: 50
  Inf proof: 6
  Relax-and-lift: 62

Explored 457 nodes (178084 simplex iterations) in 10.89 seconds (16.08 work units)
Thread count was 8 (of 8 available processors)

Solution count 10: 5.72335e+07 5.73832e+07 5.7618e+07 ... 6.68983e+07

Optimal solution found (tolerance 1.00e-04)
Best objective 5.723350905000e+07, best bound 5.723350905000e+07, gap 0.0000%

Gurobi 10.0.1 (mac64[arm]) logging started Fri Sep 22 17:51:15 2023

Set parameter LogFile to value "results/scenario_returns/returns_normal/M_j_n_0/mip_log.txt"
Gurobi Optimizer version 10.0.1 build v10.0.1rc0 (mac64[arm])

CPU model: Apple M1
Thread count: 8 physical cores, 8 logical processors, using up to 8 threads

Optimize a model with 5082 rows, 18879 columns and 73716 nonzeros
Model fingerprint: 0x61725049
Model has 26934 general constraints
Variable types: 3 continuous, 18876 integer (1224 binary)
Coefficient statistics:
  Matrix range     [6e-02, 3e+05]
  Objective range  [9e-02, 2e+05]
  Bounds range     [1e+00, 2e+07]
  RHS range        [2e+03, 2e+04]
  GenCon rhs range [1e+00, 1e+00]
  GenCon coe range [1e+00, 1e+00]

MIP start from previous solve produced solution with objective 5.49351e+07 (1.46s)
MIP start from previous solve produced solution with objective 5.45977e+07 (1.50s)
MIP start from previous solve produced solution with objective 5.45686e+07 (2.39s)
Processing MIP start from previous solve: 223 nodes explored in subMIP, total elapsed time 5s
MIP start from previous solve produced solution with objective 5.41694e+07 (5.81s)
MIP start from previous solve produced solution with objective 5.41432e+07 (5.82s)
MIP start from previous solve produced solution with objective 5.40484e+07 (5.95s)
MIP start from previous solve produced solution with objective 5.40393e+07 (7.23s)
Loaded MIP start from previous solve with objective 5.40393e+07
Processed MIP start in 7.98 seconds (12.12 work units)

Presolve removed 3455 rows and 13088 columns
Presolve time: 0.59s
Presolved: 1627 rows, 5791 columns, 23138 nonzeros
Presolved model has 4 SOS constraint(s)
Found heuristic solution: objective 6.547674e+07
Variable types: 0 continuous, 5791 integer (34 binary)

Root simplex log...

Iteration    Objective       Primal Inf.    Dual Inf.      Time
       0    2.5307965e+06   2.591860e+05   0.000000e+00      9s
    6288    5.2604589e+07   0.000000e+00   0.000000e+00      9s

Root relaxation: objective 5.260459e+07, 6288 iterations, 0.07 seconds (0.09 work units)

    Nodes    |    Current Node    |     Objective Bounds      |     Work
 Expl Unexpl |  Obj  Depth IntInf | Incumbent    BestBd   Gap | It/Node Time

     0     0 5.2605e+07    0  568 5.4039e+07 5.2605e+07  2.65%     -    8s
     0     0 5.2716e+07    0  527 5.4039e+07 5.2716e+07  2.45%     -    8s
     0     0 5.2721e+07    0  542 5.4039e+07 5.2721e+07  2.44%     -    8s
     0     0 5.3105e+07    0 1136 5.4039e+07 5.3105e+07  1.73%     -    9s
     0     0 5.3110e+07    0 1149 5.4039e+07 5.3110e+07  1.72%     -    9s
     0     0 5.3112e+07    0 1078 5.4039e+07 5.3112e+07  1.72%     -    9s
     0     0 5.3112e+07    0 1084 5.4039e+07 5.3112e+07  1.72%     -    9s
     0     0 5.3119e+07    0 1069 5.4039e+07 5.3119e+07  1.70%     -    9s
     0     0 5.3120e+07    0 1107 5.4039e+07 5.3120e+07  1.70%     -    9s
     0     0 5.3121e+07    0 1116 5.4039e+07 5.3121e+07  1.70%     -    9s
     0     0 5.3121e+07    0 1113 5.4039e+07 5.3121e+07  1.70%     -    9s
     0     0 5.3121e+07    0 1037 5.4039e+07 5.3121e+07  1.70%     -    9s
     0     0 5.3121e+07    0 1040 5.4039e+07 5.3121e+07  1.70%     -    9s
     0     0 5.3121e+07    0 1044 5.4039e+07 5.3121e+07  1.70%     -    9s
     0     0 5.3121e+07    0 1035 5.4039e+07 5.3121e+07  1.70%     -    9s
     0     2 5.3121e+07    0 1030 5.4039e+07 5.3121e+07  1.70%     -   10s
H   71    53                    5.401644e+07 5.3594e+07  0.78%   651   11s

Cutting planes:
  Gomory: 3
  Cover: 2
  Implied bound: 696
  MIR: 67
  Inf proof: 1
  Relax-and-lift: 47

Explored 709 nodes (193942 simplex iterations) in 12.31 seconds (18.33 work units)
Thread count was 8 (of 8 available processors)

Solution count 9: 5.40164e+07 5.40393e+07 5.40484e+07 ... 6.54767e+07

Optimal solution found (tolerance 1.00e-04)
Best objective 5.401643921000e+07, best bound 5.401643921000e+07, gap 0.0000%

Gurobi 10.0.1 (mac64[arm]) logging started Fri Sep 22 19:33:58 2023

Set parameter LogFile to value "results/scenario_returns/returns_normal/M_j_n_0/mip_log.txt"
Gurobi Optimizer version 10.0.1 build v10.0.1rc0 (mac64[arm])

CPU model: Apple M1
Thread count: 8 physical cores, 8 logical processors, using up to 8 threads

Optimize a model with 5082 rows, 18879 columns and 73716 nonzeros
Model fingerprint: 0x4cf05024
Model has 26934 general constraints
Variable types: 3 continuous, 18876 integer (1224 binary)
Coefficient statistics:
  Matrix range     [6e-02, 3e+05]
  Objective range  [9e-02, 2e+05]
  Bounds range     [1e+00, 2e+07]
  RHS range        [2e+03, 2e+04]
  GenCon rhs range [1e+00, 1e+00]
  GenCon coe range [1e+00, 1e+00]
Presolve removed 3455 rows and 13088 columns
Presolve time: 0.60s
Presolved: 1627 rows, 5791 columns, 23173 nonzeros
Presolved model has 4 SOS constraint(s)
Variable types: 0 continuous, 5791 integer (34 binary)

Root relaxation: objective 5.650950e+07, 6599 iterations, 0.08 seconds (0.11 work units)

    Nodes    |    Current Node    |     Objective Bounds      |     Work
 Expl Unexpl |  Obj  Depth IntInf | Incumbent    BestBd   Gap | It/Node Time

     0     0 5.6510e+07    0  665          - 5.6510e+07      -     -    0s
     0     0 5.6746e+07    0 1141          - 5.6746e+07      -     -    0s
H    0     0                    6.856168e+07 5.6765e+07  17.2%     -    0s
     0     0 5.7206e+07    0 1165 6.8562e+07 5.7206e+07  16.6%     -    1s
     0     0 5.7206e+07    0 1159 6.8562e+07 5.7206e+07  16.6%     -    1s
     0     0 5.7206e+07    0 1167 6.8562e+07 5.7206e+07  16.6%     -    1s
H    0     0                    6.651517e+07 5.7206e+07  14.0%     -    1s
     0     0 5.7605e+07    0 1222 6.6515e+07 5.7605e+07  13.4%     -    1s
H    0     0                    6.651510e+07 5.7605e+07  13.4%     -    1s
     0     0 5.7668e+07    0 1109 6.6515e+07 5.7668e+07  13.3%     -    1s
     0     0 5.7728e+07    0 1272 6.6515e+07 5.7728e+07  13.2%     -    1s
     0     0 5.7755e+07    0 1184 6.6515e+07 5.7755e+07  13.2%     -    1s
H    0     0                    6.578458e+07 5.7817e+07  12.1%     -    1s
     0     0 5.7901e+07    0 1339 6.5785e+07 5.7901e+07  12.0%     -    1s
H    0     0                    6.036413e+07 5.7953e+07  3.99%     -    1s
     0     0 5.7953e+07    0 1330 6.0364e+07 5.7953e+07  3.99%     -    1s
H    0     0                    6.035101e+07 5.7953e+07  3.97%     -    1s
H    0     0                    5.961176e+07 5.7953e+07  2.78%     -    2s
     0     2 5.7953e+07    0 1323 5.9612e+07 5.7953e+07  2.78%     -    2s
H   33    39                    5.961062e+07 5.7953e+07  2.78%  1004    3s
H   34    39                    5.953604e+07 5.7953e+07  2.66%   987    3s
H   35    39                    5.950497e+07 5.7953e+07  2.61%   970    3s
H   36    39                    5.942844e+07 5.7953e+07  2.48%   967    3s
H   38    39                    5.942706e+07 5.7953e+07  2.48%   941    3s
H   78    68                    5.941926e+07 5.7953e+07  2.47%   667    3s
H  122    84                    5.849475e+07 5.7953e+07  0.93%   509    3s
   284    38 5.8352e+07    7  707 5.8495e+07 5.8300e+07  0.33%   482    5s
*  289    38               7    5.844826e+07 5.8319e+07  0.22%   483    5s

Cutting planes:
  Gomory: 1
  Implied bound: 958
  MIR: 119
  Flow path: 1
  Inf proof: 3
  Relax-and-lift: 70

Explored 346 nodes (165634 simplex iterations) in 5.38 seconds (7.72 work units)
Thread count was 8 (of 8 available processors)

Solution count 10: 5.84483e+07 5.84947e+07 5.94193e+07 ... 6.0351e+07

Optimal solution found (tolerance 1.00e-04)
Best objective 5.844825894500e+07, best bound 5.844825894500e+07, gap 0.0000%
Discarded solution information
